/* Objective function */
min: +C82 +C83 +C84 +C85 +C86 +C87 +C88 +C89 +C90;

/* Constraints */
+102 C1 +137 C2 +144 C3 +C4 +8 C5 +67 C6 +40 C7 +31 C8 +4 C9 -175 C82 <= 0;
+102 C10 +137 C11 +144 C12 +C13 +8 C14 +67 C15 +40 C16 +31 C17 +4 C18 -175 C83 <= 0;
+102 C19 +137 C20 +144 C21 +C22 +8 C23 +67 C24 +40 C25 +31 C26 +4 C27 -175 C84 <= 0;
+102 C28 +137 C29 +144 C30 +C31 +8 C32 +67 C33 +40 C34 +31 C35 +4 C36 -175 C85 <= 0;
+102 C37 +137 C38 +144 C39 +C40 +8 C41 +67 C42 +40 C43 +31 C44 +4 C45 -175 C86 <= 0;
+102 C46 +137 C47 +144 C48 +C49 +8 C50 +67 C51 +40 C52 +31 C53 +4 C54 -175 C87 <= 0;
+102 C55 +137 C56 +144 C57 +C58 +8 C59 +67 C60 +40 C61 +31 C62 +4 C63 -175 C88 <= 0;
+102 C64 +137 C65 +144 C66 +C67 +8 C68 +67 C69 +40 C70 +31 C71 +4 C72 -175 C89 <= 0;
+102 C73 +137 C74 +144 C75 +C76 +8 C77 +67 C78 +40 C79 +31 C80 +4 C81 -175 C90 <= 0;
+50 C1 +76 C2 +90 C3 +142 C4 +41 C5 +3 C6 +64 C7 +37 C8 +84 C9 -145 C82 <= 0;
+50 C10 +76 C11 +90 C12 +142 C13 +41 C14 +3 C15 +64 C16 +37 C17 +84 C18 -145 C83 <= 0;
+50 C19 +76 C20 +90 C21 +142 C22 +41 C23 +3 C24 +64 C25 +37 C26 +84 C27 -145 C84 <= 0;
+50 C28 +76 C29 +90 C30 +142 C31 +41 C32 +3 C33 +64 C34 +37 C35 +84 C36 -145 C85 <= 0;
+50 C37 +76 C38 +90 C39 +142 C40 +41 C41 +3 C42 +64 C43 +37 C44 +84 C45 -145 C86 <= 0;
+50 C46 +76 C47 +90 C48 +142 C49 +41 C50 +3 C51 +64 C52 +37 C53 +84 C54 -145 C87 <= 0;
+50 C55 +76 C56 +90 C57 +142 C58 +41 C59 +3 C60 +64 C61 +37 C62 +84 C63 -145 C88 <= 0;
+50 C64 +76 C65 +90 C66 +142 C67 +41 C68 +3 C69 +64 C70 +37 C71 +84 C72 -145 C89 <= 0;
+50 C73 +76 C74 +90 C75 +142 C76 +41 C77 +3 C78 +64 C79 +37 C80 +84 C81 -145 C90 <= 0;
+C1 +C10 +C19 +C28 +C37 +C46 +C55 +C64 +C73 = 1;
+C2 +C11 +C20 +C29 +C38 +C47 +C56 +C65 +C74 = 1;
+C3 +C12 +C21 +C30 +C39 +C48 +C57 +C66 +C75 = 1;
+C4 +C13 +C22 +C31 +C40 +C49 +C58 +C67 +C76 = 1;
+C5 +C14 +C23 +C32 +C41 +C50 +C59 +C68 +C77 = 1;
+C6 +C15 +C24 +C33 +C42 +C51 +C60 +C69 +C78 = 1;
+C7 +C16 +C25 +C34 +C43 +C52 +C61 +C70 +C79 = 1;
+C8 +C17 +C26 +C35 +C44 +C53 +C62 +C71 +C80 = 1;
+C9 +C18 +C27 +C36 +C45 +C54 +C63 +C72 +C81 = 1;

/* Variable bounds */
C1 <= 1;
C2 <= 1;
C3 <= 1;
C4 <= 1;
C5 <= 1;
C6 <= 1;
C7 <= 1;
C8 <= 1;
C9 <= 1;
C10 <= 1;
C11 <= 1;
C12 <= 1;
C13 <= 1;
C14 <= 1;
C15 <= 1;
C16 <= 1;
C17 <= 1;
C18 <= 1;
C19 <= 1;
C20 <= 1;
C21 <= 1;
C22 <= 1;
C23 <= 1;
C24 <= 1;
C25 <= 1;
C26 <= 1;
C27 <= 1;
C28 <= 1;
C29 <= 1;
C30 <= 1;
C31 <= 1;
C32 <= 1;
C33 <= 1;
C34 <= 1;
C35 <= 1;
C36 <= 1;
C37 <= 1;
C38 <= 1;
C39 <= 1;
C40 <= 1;
C41 <= 1;
C42 <= 1;
C43 <= 1;
C44 <= 1;
C45 <= 1;
C46 <= 1;
C47 <= 1;
C48 <= 1;
C49 <= 1;
C50 <= 1;
C51 <= 1;
C52 <= 1;
C53 <= 1;
C54 <= 1;
C55 <= 1;
C56 <= 1;
C57 <= 1;
C58 <= 1;
C59 <= 1;
C60 <= 1;
C61 <= 1;
C62 <= 1;
C63 <= 1;
C64 <= 1;
C65 <= 1;
C66 <= 1;
C67 <= 1;
C68 <= 1;
C69 <= 1;
C70 <= 1;
C71 <= 1;
C72 <= 1;
C73 <= 1;
C74 <= 1;
C75 <= 1;
C76 <= 1;
C77 <= 1;
C78 <= 1;
C79 <= 1;
C80 <= 1;
C81 <= 1;
C82 <= 1;
C83 <= 1;
C84 <= 1;
C85 <= 1;
C86 <= 1;
C87 <= 1;
C88 <= 1;
C89 <= 1;
C90 <= 1;

/* Integer definitions */
int C1,C2,C3,C4,C5,C6,C7,C8,C9,C10,C11,C12,C13,C14,C15,C16,C17,C18,C19,C20,C21,C22,C23,C24,C25,C26,C27,C28,C29,C30,C31,C32,C33,C34,C35,C36,C37,C38,C39,C40,C41,C42,C43,C44,C45,C46,C47,C48,C49,C50,C51,C52,C53,C54,C55,C56,C57,C58,C59,C60,C61,C62,C63,C64,C65,C66,C67,C68,C69,C70,C71,C72,C73,C74,C75,C76,C77,C78,C79,C80,C81,C82,C83,C84,C85,C86,C87,C88,C89,C90;
